Minimize
 obj: 0
Subject to

\true constraints
   87 X1
 +    66 X2
 +    70 X3
 +    74 X4
 +    88 X5
< 192.500000

\multiple objectives
 -  86 X1
 -    98 X2
 -    76 X3
 -    61 X4
 -    87 X5
< 1
 -  73 X1
 -    88 X2
 -    69 X3
 -    70 X4
 -    81 X5
< 2
 -  90 X1
 -    86 X2
 -    74 X3
 -    67 X4
 -    81 X5
< 3
 -  99 X1
 -    99 X2
 -    83 X3
 -    85 X4
 -    86 X5
< 4
 -  90 X1
 -    99 X2
 -    64 X3
 -    96 X4
 -    77 X5
< 5
 -  77 X1
 -    79 X2
 -    95 X3
 -    74 X4
 -    92 X5
< 6
 -  97 X1
 -    84 X2
 -    91 X3
 -    86 X4
 -    65 X5
< 7
 -  60 X1
 -    86 X2
 -    86 X3
 -    80 X4
 -    95 X5
< 8
 -  67 X1
 -    97 X2
 -    84 X3
 -    94 X4
 -    92 X5
< 9



BINARY
X1
X2
X3
X4
X5
END
